RT is False
Default write of storage_offers_DA.csv just to have a file (but constraint should be inactive)
Reading model...
...model read.
creating competitive generators file...
...competitive generators recorded.
Loading data...
.. day-ahead data with real-time VRE data read.
Compiling instance...
...instance created.
Creating Offer Mitigation (model will solve as dispatch if TRUE)...
NOTE: storage offers will not be mitigated
...storage offer mitigation file created
Converting model to MPEC...
...converted
NOTE: initial MIP solve with only storage competitive to get feasible solution
Solving...

Welcome to IBM(R) ILOG(R) CPLEX(R) Interactive Optimizer 12.9.0.0
  with Simplex, Mixed Integer & Barrier Optimizers
5725-A06 5725-A29 5724-Y48 5724-Y49 5724-Y54 5724-Y55 5655-Y21
Copyright IBM Corp. 1988, 2019.  All Rights Reserved.

Type 'help' for a list of available commands.
Type 'help' followed by a command name for more
information on commands.

CPLEX> Logfile 'cplex.log' closed.
Logfile 'C:\Users\llavin\Desktop\test919\logs\tmp0xq9spfw.cplex.log' open.
CPLEX> New value for parallel optimization mode: -1
CPLEX> New value for mixed integer optimality gap tolerance: 0.01
CPLEX> New value for integrality tolerance: 1e-09
CPLEX> New value for feasibility tolerance: 0.01
CPLEX> New value for deterministic time limit in ticks: 75000
CPLEX> Problem 'C:\Users\llavin\Desktop\test919\logs\tmpfyxcahxb.pyomo.lp' read.
Read time = 0.23 sec. (14.73 ticks)
CPLEX> Problem name         : C:\Users\llavin\Desktop\test919\logs\tmpfyxcahxb.pyomo.lp
Objective sense      : Maximize
Variables            :   53805  [Nneg: 1,  Box: 22000,  Free: 4464,
                                 Binary: 27340]
Objective nonzeros   :    9037
Linear constraints   :  123205  [Less: 41346,  Greater: 59096,  Equal: 22763]
  Nonzeros           :  291761
  RHS nonzeros       :   67499

Variables            : Min LB: -5000.000        Max UB: 1000000.       
Objective nonzeros   : Min   : 0.008333333      Max   : 2500.000       
Linear constraints   :
  Nonzeros           : Min   : 0.008333333      Max   : 1000000.       
  RHS nonzeros       : Min   : 0.008333333      Max   : 1000000.       
CPLEX> CPXPARAM_Parallel                                -1
CPXPARAM_Simplex_Tolerances_Feasibility          0.01
CPXPARAM_DetTimeLimit                            75000
CPXPARAM_MIP_Tolerances_MIPGap                   0.01
CPXPARAM_MIP_Tolerances_Integrality              1.0000000000000001e-09
Tried aggregator 3 times.
MIP Presolve eliminated 88598 rows and 18929 columns.
MIP Presolve added 3388 rows and 0 columns.
MIP Presolve modified 24874 coefficients.
Aggregator did 13008 substitutions.
Reduced MIP has 24987 rows, 21319 columns, and 71252 nonzeros.
Reduced MIP has 8433 binaries, 0 generals, 0 SOSs, and 0 indicators.
Presolve time = 0.30 sec. (173.86 ticks)
Probing fixed 384 vars, tightened 2855 bounds.
Probing time = 1.20 sec. (878.92 ticks)
Tried aggregator 2 times.
MIP Presolve eliminated 869 rows and 769 columns.
MIP Presolve modified 2221 coefficients.
Aggregator did 27 substitutions.
Reduced MIP has 24091 rows, 20523 columns, and 68659 nonzeros.
Reduced MIP has 8049 binaries, 0 generals, 0 SOSs, and 0 indicators.
Presolve time = 0.09 sec. (68.99 ticks)
Probing time = 0.03 sec. (15.89 ticks)
Clique table members: 6357.
MIP emphasis: balance optimality and feasibility.
MIP search method: dynamic search.
Parallel mode: opportunistic, using up to 32 threads.
Root relaxation solution time = 0.36 sec. (439.11 ticks)

        Nodes                                         Cuts/
   Node  Left     Objective  IInf  Best Integer    Best Bound    ItCnt     Gap

      0     0     1136.6231   656                   1136.6231     3037         
*     0     0      integral     0     1136.6231     1136.6231     3037    0.00%
Elapsed time = 3.77 sec. (2751.48 ticks, tree = 0.01 MB, solutions = 1)

Root node processing (before b&c):
  Real time             =    3.77 sec. (2752.96 ticks)
Parallel b&c, 32 threads:
  Real time             =    0.00 sec. (0.00 ticks)
  Sync time (average)   =    0.00 sec.
  Wait time (average)   =    0.00 sec.
                          ------------
Total (root+branch&cut) =    3.77 sec. (2752.96 ticks)

Solution pool: 1 solution saved.

MIP - Integer optimal solution:  Objective =  1.1366231280e+03
Solution time =    3.78 sec.  Iterations = 3037  Nodes = 0
Deterministic time = 2753.11 ticks  (728.14 ticks/sec)

CPLEX> Incumbent solution written to file 'C:\Users\llavin\Desktop\test919\logs\tmp6olzv3bi.cplex.sol'.
CPLEX> NOTE: no warmstart specified for MIP iteration, default behavior is true
NOTE: resolving with all competitive generators using storage-only solution to warmstart
Solving...

Welcome to IBM(R) ILOG(R) CPLEX(R) Interactive Optimizer 12.9.0.0
  with Simplex, Mixed Integer & Barrier Optimizers
5725-A06 5725-A29 5724-Y48 5724-Y49 5724-Y54 5724-Y55 5655-Y21
Copyright IBM Corp. 1988, 2019.  All Rights Reserved.

Type 'help' for a list of available commands.
Type 'help' followed by a command name for more
information on commands.

CPLEX> Logfile 'cplex.log' closed.
Logfile 'C:\Users\llavin\Desktop\test919\logs\tmp24kvp5j6.cplex.log' open.
CPLEX> New value for parallel optimization mode: -1
CPLEX> New value for mixed integer optimality gap tolerance: 0.01
CPLEX> New value for integrality tolerance: 1e-09
CPLEX> New value for feasibility tolerance: 0.01
CPLEX> New value for deterministic time limit in ticks: 75000
CPLEX> Problem 'C:\Users\llavin\Desktop\test919\logs\tmpozt_4c70.pyomo.lp' read.
Read time = 0.23 sec. (14.75 ticks)
CPLEX> MIP start file 'C:\Users\llavin\Desktop\test919\logs\tmp6q1nu3tq.cplex.mst' read.
CPLEX> Problem name         : C:\Users\llavin\Desktop\test919\logs\tmpozt_4c70.pyomo.lp
Objective sense      : Maximize
Variables            :   54525  [Nneg: 1,  Box: 22720,  Free: 4464,
                                 Binary: 27340]
Objective nonzeros   :    9733
Linear constraints   :  123205  [Less: 41346,  Greater: 59096,  Equal: 22763]
  Nonzeros           :  291761
  RHS nonzeros       :   67499

Variables            : Min LB: -5000.000        Max UB: 1000000.       
Objective nonzeros   : Min   : 0.008333333      Max   : 2500.000       
Linear constraints   :
  Nonzeros           : Min   : 0.008333333      Max   : 1000000.       
  RHS nonzeros       : Min   : 0.008333333      Max   : 1000000.       
CPLEX> CPXPARAM_Parallel                                -1
CPXPARAM_Simplex_Tolerances_Feasibility          0.01
CPXPARAM_DetTimeLimit                            75000
CPXPARAM_MIP_Tolerances_MIPGap                   0.01
CPXPARAM_MIP_Tolerances_Integrality              1.0000000000000001e-09
Warning:  No solution found from 1 MIP starts.
Retaining values of one MIP start for possible repair.
Tried aggregator 3 times.
MIP Presolve eliminated 88598 rows and 19649 columns.
MIP Presolve added 3388 rows and 0 columns.
MIP Presolve modified 24874 coefficients.
Aggregator did 13008 substitutions.
Reduced MIP has 24987 rows, 21319 columns, and 71252 nonzeros.
Reduced MIP has 8433 binaries, 0 generals, 0 SOSs, and 0 indicators.
Presolve time = 0.28 sec. (174.22 ticks)
Probing fixed 384 vars, tightened 2855 bounds.
Probing time = 1.20 sec. (878.92 ticks)
Tried aggregator 2 times.
MIP Presolve eliminated 869 rows and 769 columns.
MIP Presolve modified 2221 coefficients.
Aggregator did 27 substitutions.
Reduced MIP has 24091 rows, 20523 columns, and 68659 nonzeros.
Reduced MIP has 8049 binaries, 0 generals, 0 SOSs, and 0 indicators.
Presolve time = 0.09 sec. (69.00 ticks)
Probing time = 0.03 sec. (15.89 ticks)
Clique table members: 6357.
MIP emphasis: balance optimality and feasibility.
MIP search method: dynamic search.
Parallel mode: opportunistic, using up to 32 threads.
Root relaxation solution time = 0.39 sec. (486.08 ticks)

        Nodes                                         Cuts/
   Node  Left     Objective  IInf  Best Integer    Best Bound    ItCnt     Gap

      0     0   136437.2679   830                 136437.2679     2968         
      0     0   130733.3659   682                   Cuts: 741     3379         
      0     0   130074.2107   628                   Cuts: 283     3522         
      0     0   129870.0640   588                   Cuts: 153     3609         
      0     0   129783.6734   566                   Cuts: 130     3679         
      0     0   129711.2138   535                   Cuts: 121     3743         
      0     0   129711.2138   520                    Cuts: 87     3786         
      0     0   129711.2138   513                    Cuts: 85     3820         
      0     0   129711.2138   489                    Cuts: 74     3853         
      0     0   129711.2138   485                    Cuts: 50     3886         
      0     0   129711.2138   485                    Cuts: 56     3911         
Repair heuristic found nothing.
      0     2   119104.9509   462                 Impl Bds: 2     3911         
Elapsed time = 11.91 sec. (7038.06 ticks, tree = 0.02 MB, solutions = 0)
    388    85    96452.8083   319                 115547.5739     5033         
    942   210    43327.2781   295                 115547.5739     6739         
   1370   503    47135.0022   300                 115547.5739    10352         
   1959   883    19423.9792   287                 115547.5739    16255         
   2706  1240    24526.2374   282                 115547.5739    23615         
   3469  2155     4351.5381   256                 115547.5739    38480         
   4312  2595    22291.2186   225                 115547.5739    40642         
   5324  2672    22328.4495   277                 115547.5739    40672         
   6291  3295    15921.9360   241                 115547.5739    41961         
* 10040+ 8384                       -36432.8878   115547.5739           417.15%
Elapsed time = 29.09 sec. (10088.69 ticks, tree = 69.84 MB, solutions = 2)
* 11239  8088      integral     0   -28162.9511   115547.5739    47006  510.28%
* 11535  8318      integral     0    14360.8571   115547.5739    47864  704.60%
* 11642  8481      integral     0    23467.1495   115547.5739    48196  392.38%
  11644  1902        cutoff          23467.1495    25023.1617    62277    6.63%
  12619    92    28110.8632    45    23467.1495    25023.1617    73729    6.63%
  12841    22        cutoff          23467.1495    25023.1617    76385    6.63%

GUB cover cuts applied:  2
Clique cuts applied:  1
Cover cuts applied:  18
Implied bound cuts applied:  30
Flow cuts applied:  283
Mixed integer rounding cuts applied:  25
Gomory fractional cuts applied:  76

Root node processing (before b&c):
  Real time             =   10.08 sec. (6976.58 ticks)
Parallel b&c, 32 threads:
  Real time             =   35.36 sec. (10886.56 ticks)
  Sync time (average)   =    2.06 sec.
  Wait time (average)   =    0.22 sec.
                          ------------
Total (root+branch&cut) =   45.44 sec. (17863.14 ticks)

Solution pool: 4 solutions saved.

MIP - Integer optimal, tolerance (0.01/1e-06):  Objective =  2.3467149539e+04
Current MIP best bound =  2.3514709172e+04 (gap = 47.5596, 0.20%)
Solution time =   45.48 sec.  Iterations = 76881  Nodes = 12848 (1)
Deterministic time = 17863.30 ticks  (392.73 ticks/sec)

CPLEX> Incumbent solution written to file 'C:\Users\llavin\Desktop\test919\logs\tmp7bmucv0e.cplex.sol'.
CPLEX> Exporting results... 
